JulietBench/Juliet_Based_Patch_Bench/linux/CWE-190-Integer-Overflow-or-Wraparound/CVE_2017_7482_5f2f97656ada8d811d3c1bef503ced266fcd53a0/ResulttestEQ.smt2
; benchmark generated from python API
(set-info :status unknown)
(declare-fun rdi () (_ BitVec 64))
(declare-fun rsi () (_ BitVec 64))
(declare-fun R () (_ BitVec 32))
(assert
 (let ((?x6 ((_ extract 31 0) rdi)))
 (let ((?x71 (bvadd (_ bv3 32) ?x6)))
 (let ((?x79 ((_ extract 31 2) ?x71)))
 (let ((?x86 (concat ?x79 (_ bv0 2))))
 (let ((?x82 (bvmul (_ bv4294967295 32) ?x86)))
 (let ((?x8 ((_ extract 31 0) rsi)))
 (let ((?x76 (bvadd ?x8 ?x82)))
 (let (($x120 (= R ?x76)))
 (let (($x83 (bvule ?x86 ?x8)))
 (let (($x84 (and $x83 $x120)))
 (let (($x117 (= (_ bv4294967274 32) R)))
 (let (($x104 (bvugt ?x86 ?x8)))
 (let (($x122 (and $x104 $x117)))
 (let (($x119 (or $x122 $x84)))
 (let (($x14 (bvule ?x6 ?x8)))
 (let (($x118 (and $x14 $x120)))
 (let (($x37 (bvugt ?x6 ?x8)))
 (let (($x92 (and $x37 $x117)))
 (let (($x121 (or $x92 $x118)))
 (and $x121 $x119)))))))))))))))))))))
(check-sat)
